Maximize
  - 3.7706968593882 edge_0_1_0_0 - 3.85889 edge_0_2_0_0
   - 0.48737436552208 edge_0_3_0_0 - 2.97337 edge_0_5_0_0
   - 2.8250363799552 edge_0_9_0_0 - 1.3767879485829 edge_0_11_0_0
   - 2.0069483342315 edge_0_14_0_0 - 2.8076351427828 edge_0_15_0_0
   - 2.2126153633386 edge_0_19_0_0 - 2.22134 edge_0_23_0_0
   + 0.344527684515 edge_1_2_0_0 + 0.0893098589279604 edge_1_3_0_0
   - 0.6827544348723 edge_1_5_0_0 + 0.082075138620773 edge_1_6_0_0
   - 0.0796121259028533 edge_1_9_0_0 - 0.4170924714910972 edge_1_13_0_0
   + 0.21207915039024 edge_2_1_0_0 - 0.087117613262224 edge_2_3_0_0
   - 0.291839 edge_2_5_0_0 - 0.5471008797953 edge_2_6_0_0
   - 0.16978892791296 edge_2_9_0_0 - 1.7497473928725 edge_2_11_0_0
   - 0.7978421756442201 edge_2_12_0_0 - 0.76315041971928 edge_2_13_0_0
   + 1.192885171290907 edge_3_1_0_0 + 2.2177198355032 edge_3_2_0_0
   + 0.5124217215111487 edge_3_4_0_0 + 2.4037272371572 edge_3_5_0_0
   + 1.545911994471821 edge_3_6_0_0 - 0.4042809504765946 edge_3_8_0_0
   + 0.6632401524260003 edge_3_9_0_0 + 1.556684282141763 edge_3_11_0_0
   + 1.71250952285892 edge_3_12_0_0 + 1.216251948723582 edge_3_13_0_0
   + 0.0108060068446349 edge_3_14_0_0 + 0.4915333261434346 edge_3_15_0_0
   - 1.159813909569702 edge_3_17_0_0 - 0.0250977873936588 edge_3_19_0_0
   - 0.240816844875449 edge_3_20_0_0 - 0.82702948787046 edge_3_21_0_0
   - 0.5638227580998 edge_3_23_0_0 + 3.362859718853521 edge_3_24_0_0
   - 1.155947555923366 edge_4_1_0_0 - 1.1538155177616 edge_4_2_0_0
   - 0.3668354432978702 edge_4_3_0_0 - 0.7826378116892689 edge_4_6_0_0
   - 0.12572787080826 edge_5_1_0_0 + 0.334349 edge_5_2_0_0
   + 0.14543050900632 edge_5_3_0_0 + 3.1941575500536 edge_5_4_0_0
   + 2.4004951431932 edge_5_6_0_0 + 0.2676291713747 edge_5_8_0_0
   + 1.4163465120768 edge_5_9_0_0 + 1.0550784279308 edge_5_11_0_0
   + 1.696042977118 edge_5_12_0_0 + 2.7370433579976 edge_5_13_0_0
   + 2.2221681555989 edge_5_14_0_0 + 0.74703770762253 edge_5_15_0_0
   - 0.55497911919957 edge_5_17_0_0 - 0.25980016700792 edge_5_19_0_0
   + 0.08095459277484 edge_5_20_0_0 - 0.72898049136978 edge_5_21_0_0
   - 0.59534 edge_5_23_0_0 + 0.8611194316608 edge_5_24_0_0
   - 1.706108658831893 edge_6_1_0_0 - 0.73904970737084 edge_6_5_0_0
   - 0.0108816061914256 edge_6_8_0_0 + 0.1438875088081145 edge_6_9_0_0
   + 0.249363844545438 edge_6_11_0_0 - 0.4535175325395351 edge_8_6_0_0
   - 0.7690457705068374 edge_9_1_0_0 - 0.47284705468416 edge_9_2_0_0
   - 0.1539349971518944 edge_9_3_0_0 + 0.2769895275264 edge_9_5_0_0
   + 0.4876977780842671 edge_9_6_0_0 + 0.8229732234746013 edge_9_8_0_0
   + 0.8153953832184286 edge_9_11_0_0 + 0.8114775037690759 edge_9_12_0_0
   + 0.1593003613831188 edge_9_13_0_0 - 0.9117340508786698 edge_9_14_0_0
   + 0.0781181039358944 edge_9_15_0_0 - 1.608259888340155 edge_9_17_0_0
   - 1.08627085818519 edge_9_19_0_0 - 0.5664300761077087 edge_9_20_0_0
   - 1.336858698643273 edge_9_21_0_0 - 1.6412888635392 edge_9_23_0_0
   + 2.023930216768375 edge_9_24_0_0 + 0.094208568999253 edge_11_1_0_0
   + 0.099313652022438 edge_11_2_0_0 - 0.2040842391383906 edge_11_3_0_0
   + 1.578000055208614 edge_11_4_0_0 + 1.3084680503797 edge_11_5_0_0
   + 1.214119351146271 edge_11_6_0_0 + 3.205997072448445 edge_11_8_0_0
   + 2.765304749270584 edge_11_9_0_0 + 2.790132035164473 edge_11_12_0_0
   + 3.537221604001557 edge_11_13_0_0 + 3.66335150100933 edge_11_14_0_0
   + 1.423515416269269 edge_11_15_0_0 - 0.1337048932999021 edge_11_17_0_0
   + 0.1656098156876269 edge_11_19_0_0 + 0.2110968471334691 edge_11_20_0_0
   - 0.494099582515825 edge_11_21_0_0 + 0.11437382958274 edge_11_23_0_0
   + 2.495634634376454 edge_11_24_0_0 - 0.4055297613704753 edge_12_11_0_0
   + 0.0977492185861571 edge_12_13_0_0 + 0.6042801818474128 edge_12_14_0_0
   + 0.2004069153767566 edge_12_15_0_0 - 1.365992355716162 edge_13_12_0_0
   - 0.0975296678551005 edge_13_14_0_0 - 0.1559530691285637 edge_13_15_0_0
   + 0.2423370461947047 edge_14_8_0_0 - 0.3966133362109178 edge_14_12_0_0
   - 0.3128328202521437 edge_14_13_0_0 - 0.1645995786242364 edge_14_15_0_0
   - 1.370396438288912 edge_14_17_0_0 - 1.4160138852577 edge_14_19_0_0
   - 0.3168715278608936 edge_14_24_0_0 - 0.6410272507328176 edge_15_1_0_0
   - 0.88250047327154 edge_15_2_0_0 - 0.5173944555223634 edge_15_3_0_0
   + 0.19047267048171 edge_15_5_0_0 + 0.2182511591565214 edge_15_6_0_0
   + 0.6167710317731091 edge_15_8_0_0 - 0.1693385228288087 edge_15_9_0_0
   + 0.8949221183438067 edge_15_11_0_0 + 0.6564897923036345 edge_15_12_0_0
   + 0.5214845017673712 edge_15_13_0_0 + 1.461796257794099 edge_15_14_0_0
   + 0.5647315382863086 edge_15_17_0_0 + 0.5453729923179311 edge_15_18_0_0
   + 2.615758678825457 edge_15_19_0_0 + 1.044829153690837 edge_15_20_0_0
   + 0.182349629636795 edge_15_21_0_0 + 1.5817772635206 edge_15_23_0_0
   + 4.27406978495368 edge_15_24_0_0 + 1.031656985304056 edge_17_19_0_0
   - 0.3301599188565119 edge_17_20_0_0 - 0.9227786770753961 edge_17_21_0_0
   - 0.65352645869012 edge_17_23_0_0 + 0.0703396034921964 edge_18_17_0_0
   - 0.3016513600768013 edge_18_20_0_0 - 2.0817777267166 edge_19_2_0_0
   - 3.154437016699286 edge_19_3_0_0 - 1.4450412253134 edge_19_5_0_0
   - 1.217592249689037 edge_19_8_0_0 - 1.014410358385289 edge_19_9_0_0
   - 0.5420188403059646 edge_19_11_0_0 - 1.096060697500026 edge_19_12_0_0
   - 1.160337624189138 edge_19_13_0_0 - 0.1126911924933326 edge_19_14_0_0
   - 0.2843939522150115 edge_19_15_0_0 + 3.082407054340319 edge_19_17_0_0
   + 3.648418721005578 edge_19_18_0_0 + 0.5470635665835138 edge_19_20_0_0
   - 0.0572192216923879 edge_19_21_0_0 + 0.6899201515714199 edge_19_23_0_0
   + 1.584473718970055 edge_19_24_0_0 + 0.164861849781295 edge_20_17_0_0
   + 0.2982840011565394 edge_20_18_0_0 + 0.0792815011971431 edge_20_19_0_0
   - 0.00381381638399705 edge_20_21_0_0 + 0.12606771730716 edge_20_23_0_0
   + 0.1609348566969245 edge_20_24_0_0 - 0.035829875982539 edge_21_20_0_0
   + 0.12774856022515 edge_21_23_0_0 - 0.4834497317621865 edge_21_24_0_0
   + 0.05916512754947 edge_22_21_0_0 - 2.316705085548 edge_23_1_0_0
   - 2.77553 edge_23_2_0_0 - 2.9066616739044 edge_23_3_0_0
   - 1.32109 edge_23_5_0_0 - 1.100385303689 edge_23_6_0_0
   - 0.68522985636864 edge_23_9_0_0 - 0.58010213564653 edge_23_11_0_0
   - 1.212559232388 edge_23_12_0_0 - 0.14818487700645 edge_23_14_0_0
   - 0.30400047407827 edge_23_15_0_0 + 0.15134686840619 edge_23_17_0_0
   + 0.57838694151711 edge_23_18_0_0 + 0.0063292131989834 edge_23_19_0_0
   + 0.51727856665644 edge_23_20_0_0 + 2.5057659227254 edge_23_21_0_0
   + 3.6339700214412 edge_23_22_0_0 + 1.1538292384722 edge_23_24_0_0
Subject To
 one_parent_1: edge_0_1_0_0 + edge_2_1_0_0 + edge_3_1_0_0 + edge_4_1_0_0
   + edge_5_1_0_0 + edge_6_1_0_0 + edge_9_1_0_0 + edge_11_1_0_0
   + edge_15_1_0_0 + edge_23_1_0_0 = 1
 consume_one_flow_unit_1: flow_0_1_0_0 - flow_1_2_0_0 - flow_1_3_0_0
   - flow_1_5_0_0 - flow_1_6_0_0 - flow_1_9_0_0 - flow_1_13_0_0
   + flow_2_1_0_0 + flow_3_1_0_0 + flow_4_1_0_0 + flow_5_1_0_0
   + flow_6_1_0_0 + flow_9_1_0_0 + flow_11_1_0_0 + flow_15_1_0_0
   + flow_23_1_0_0 = 1
 one_parent_2: edge_0_2_0_0 + edge_1_2_0_0 + edge_3_2_0_0 + edge_4_2_0_0
   + edge_5_2_0_0 + edge_9_2_0_0 + edge_11_2_0_0 + edge_15_2_0_0
   + edge_19_2_0_0 + edge_23_2_0_0 = 1
 consume_one_flow_unit_2: flow_0_2_0_0 + flow_1_2_0_0 - flow_2_1_0_0
   - flow_2_3_0_0 - flow_2_5_0_0 - flow_2_6_0_0 - flow_2_9_0_0
   - flow_2_11_0_0 - flow_2_12_0_0 - flow_2_13_0_0 + flow_3_2_0_0
   + flow_4_2_0_0 + flow_5_2_0_0 + flow_9_2_0_0 + flow_11_2_0_0
   + flow_15_2_0_0 + flow_19_2_0_0 + flow_23_2_0_0 = 1
 one_parent_3: edge_0_3_0_0 + edge_1_3_0_0 + edge_2_3_0_0 + edge_4_3_0_0
   + edge_5_3_0_0 + edge_9_3_0_0 + edge_11_3_0_0 + edge_15_3_0_0
   + edge_19_3_0_0 + edge_23_3_0_0 = 1
 consume_one_flow_unit_3: flow_0_3_0_0 + flow_1_3_0_0 + flow_2_3_0_0
   - flow_3_1_0_0 - flow_3_2_0_0 - flow_3_4_0_0 - flow_3_5_0_0
   - flow_3_6_0_0 - flow_3_8_0_0 - flow_3_9_0_0 - flow_3_11_0_0
   - flow_3_12_0_0 - flow_3_13_0_0 - flow_3_14_0_0 - flow_3_15_0_0
   - flow_3_17_0_0 - flow_3_19_0_0 - flow_3_20_0_0 - flow_3_21_0_0
   - flow_3_23_0_0 - flow_3_24_0_0 + flow_4_3_0_0 + flow_5_3_0_0
   + flow_9_3_0_0 + flow_11_3_0_0 + flow_15_3_0_0 + flow_19_3_0_0
   + flow_23_3_0_0 = 1
 one_parent_4: edge_3_4_0_0 + edge_5_4_0_0 + edge_11_4_0_0 = 1
 consume_one_flow_unit_4: flow_3_4_0_0 - flow_4_1_0_0 - flow_4_2_0_0
   - flow_4_3_0_0 - flow_4_6_0_0 + flow_5_4_0_0 + flow_11_4_0_0 = 1
 one_parent_5: edge_0_5_0_0 + edge_1_5_0_0 + edge_2_5_0_0 + edge_3_5_0_0
   + edge_6_5_0_0 + edge_9_5_0_0 + edge_11_5_0_0 + edge_15_5_0_0
   + edge_19_5_0_0 + edge_23_5_0_0 = 1
 consume_one_flow_unit_5: flow_0_5_0_0 + flow_1_5_0_0 + flow_2_5_0_0
   + flow_3_5_0_0 - flow_5_1_0_0 - flow_5_2_0_0 - flow_5_3_0_0
   - flow_5_4_0_0 - flow_5_6_0_0 - flow_5_8_0_0 - flow_5_9_0_0
   - flow_5_11_0_0 - flow_5_12_0_0 - flow_5_13_0_0 - flow_5_14_0_0
   - flow_5_15_0_0 - flow_5_17_0_0 - flow_5_19_0_0 - flow_5_20_0_0
   - flow_5_21_0_0 - flow_5_23_0_0 - flow_5_24_0_0 + flow_6_5_0_0
   + flow_9_5_0_0 + flow_11_5_0_0 + flow_15_5_0_0 + flow_19_5_0_0
   + flow_23_5_0_0 = 1
 one_parent_6: edge_1_6_0_0 + edge_2_6_0_0 + edge_3_6_0_0 + edge_4_6_0_0
   + edge_5_6_0_0 + edge_8_6_0_0 + edge_9_6_0_0 + edge_11_6_0_0
   + edge_15_6_0_0 + edge_23_6_0_0 = 1
 consume_one_flow_unit_6: flow_1_6_0_0 + flow_2_6_0_0 + flow_3_6_0_0
   + flow_4_6_0_0 + flow_5_6_0_0 - flow_6_1_0_0 - flow_6_5_0_0
   - flow_6_8_0_0 - flow_6_9_0_0 - flow_6_11_0_0 + flow_8_6_0_0
   + flow_9_6_0_0 + flow_11_6_0_0 + flow_15_6_0_0 + flow_23_6_0_0 = 1
 one_parent_7: = 1
 consume_one_flow_unit_7: = 1
 one_parent_8: edge_3_8_0_0 + edge_5_8_0_0 + edge_6_8_0_0 + edge_9_8_0_0
   + edge_11_8_0_0 + edge_14_8_0_0 + edge_15_8_0_0 + edge_19_8_0_0 = 1
 consume_one_flow_unit_8: flow_3_8_0_0 + flow_5_8_0_0 + flow_6_8_0_0
   - flow_8_6_0_0 + flow_9_8_0_0 + flow_11_8_0_0 + flow_14_8_0_0
   + flow_15_8_0_0 + flow_19_8_0_0 = 1
 one_parent_9: edge_0_9_0_0 + edge_1_9_0_0 + edge_2_9_0_0 + edge_3_9_0_0
   + edge_5_9_0_0 + edge_6_9_0_0 + edge_11_9_0_0 + edge_15_9_0_0
   + edge_19_9_0_0 + edge_23_9_0_0 = 1
 consume_one_flow_unit_9: flow_0_9_0_0 + flow_1_9_0_0 + flow_2_9_0_0
   + flow_3_9_0_0 + flow_5_9_0_0 + flow_6_9_0_0 - flow_9_1_0_0
   - flow_9_2_0_0 - flow_9_3_0_0 - flow_9_5_0_0 - flow_9_6_0_0
   - flow_9_8_0_0 - flow_9_11_0_0 - flow_9_12_0_0 - flow_9_13_0_0
   - flow_9_14_0_0 - flow_9_15_0_0 - flow_9_17_0_0 - flow_9_19_0_0
   - flow_9_20_0_0 - flow_9_21_0_0 - flow_9_23_0_0 - flow_9_24_0_0
   + flow_11_9_0_0 + flow_15_9_0_0 + flow_19_9_0_0 + flow_23_9_0_0 = 1
 one_parent_10: = 1
 consume_one_flow_unit_10: = 1
 one_parent_11: edge_0_11_0_0 + edge_2_11_0_0 + edge_3_11_0_0
   + edge_5_11_0_0 + edge_6_11_0_0 + edge_9_11_0_0 + edge_12_11_0_0
   + edge_15_11_0_0 + edge_19_11_0_0 + edge_23_11_0_0 = 1
 consume_one_flow_unit_11: flow_0_11_0_0 + flow_2_11_0_0 + flow_3_11_0_0
   + flow_5_11_0_0 + flow_6_11_0_0 + flow_9_11_0_0 - flow_11_1_0_0
   - flow_11_2_0_0 - flow_11_3_0_0 - flow_11_4_0_0 - flow_11_5_0_0
   - flow_11_6_0_0 - flow_11_8_0_0 - flow_11_9_0_0 - flow_11_12_0_0
   - flow_11_13_0_0 - flow_11_14_0_0 - flow_11_15_0_0 - flow_11_17_0_0
   - flow_11_19_0_0 - flow_11_20_0_0 - flow_11_21_0_0 - flow_11_23_0_0
   - flow_11_24_0_0 + flow_12_11_0_0 + flow_15_11_0_0 + flow_19_11_0_0
   + flow_23_11_0_0 = 1
 one_parent_12: edge_2_12_0_0 + edge_3_12_0_0 + edge_5_12_0_0
   + edge_9_12_0_0 + edge_11_12_0_0 + edge_13_12_0_0 + edge_14_12_0_0
   + edge_15_12_0_0 + edge_19_12_0_0 + edge_23_12_0_0 = 1
 consume_one_flow_unit_12: flow_2_12_0_0 + flow_3_12_0_0 + flow_5_12_0_0
   + flow_9_12_0_0 + flow_11_12_0_0 - flow_12_11_0_0 - flow_12_13_0_0
   - flow_12_14_0_0 - flow_12_15_0_0 + flow_13_12_0_0 + flow_14_12_0_0
   + flow_15_12_0_0 + flow_19_12_0_0 + flow_23_12_0_0 = 1
 one_parent_13: edge_1_13_0_0 + edge_2_13_0_0 + edge_3_13_0_0
   + edge_5_13_0_0 + edge_9_13_0_0 + edge_11_13_0_0 + edge_12_13_0_0
   + edge_14_13_0_0 + edge_15_13_0_0 + edge_19_13_0_0 = 1
 consume_one_flow_unit_13: flow_1_13_0_0 + flow_2_13_0_0 + flow_3_13_0_0
   + flow_5_13_0_0 + flow_9_13_0_0 + flow_11_13_0_0 + flow_12_13_0_0
   - flow_13_12_0_0 - flow_13_14_0_0 - flow_13_15_0_0 + flow_14_13_0_0
   + flow_15_13_0_0 + flow_19_13_0_0 = 1
 one_parent_14: edge_0_14_0_0 + edge_3_14_0_0 + edge_5_14_0_0
   + edge_9_14_0_0 + edge_11_14_0_0 + edge_12_14_0_0 + edge_13_14_0_0
   + edge_15_14_0_0 + edge_19_14_0_0 + edge_23_14_0_0 = 1
 consume_one_flow_unit_14: flow_0_14_0_0 + flow_3_14_0_0 + flow_5_14_0_0
   + flow_9_14_0_0 + flow_11_14_0_0 + flow_12_14_0_0 + flow_13_14_0_0
   - flow_14_8_0_0 - flow_14_12_0_0 - flow_14_13_0_0 - flow_14_15_0_0
   - flow_14_17_0_0 - flow_14_19_0_0 - flow_14_24_0_0 + flow_15_14_0_0
   + flow_19_14_0_0 + flow_23_14_0_0 = 1
 one_parent_15: edge_0_15_0_0 + edge_3_15_0_0 + edge_5_15_0_0
   + edge_9_15_0_0 + edge_11_15_0_0 + edge_12_15_0_0 + edge_13_15_0_0
   + edge_14_15_0_0 + edge_19_15_0_0 + edge_23_15_0_0 = 1
 consume_one_flow_unit_15: flow_0_15_0_0 + flow_3_15_0_0 + flow_5_15_0_0
   + flow_9_15_0_0 + flow_11_15_0_0 + flow_12_15_0_0 + flow_13_15_0_0
   + flow_14_15_0_0 - flow_15_1_0_0 - flow_15_2_0_0 - flow_15_3_0_0
   - flow_15_5_0_0 - flow_15_6_0_0 - flow_15_8_0_0 - flow_15_9_0_0
   - flow_15_11_0_0 - flow_15_12_0_0 - flow_15_13_0_0 - flow_15_14_0_0
   - flow_15_17_0_0 - flow_15_18_0_0 - flow_15_19_0_0 - flow_15_20_0_0
   - flow_15_21_0_0 - flow_15_23_0_0 - flow_15_24_0_0 + flow_19_15_0_0
   + flow_23_15_0_0 = 1
 one_parent_16: = 1
 consume_one_flow_unit_16: = 1
 one_parent_17: edge_3_17_0_0 + edge_5_17_0_0 + edge_9_17_0_0
   + edge_11_17_0_0 + edge_14_17_0_0 + edge_15_17_0_0 + edge_18_17_0_0
   + edge_19_17_0_0 + edge_20_17_0_0 + edge_23_17_0_0 = 1
 consume_one_flow_unit_17: flow_3_17_0_0 + flow_5_17_0_0 + flow_9_17_0_0
   + flow_11_17_0_0 + flow_14_17_0_0 + flow_15_17_0_0 - flow_17_19_0_0
   - flow_17_20_0_0 - flow_17_21_0_0 - flow_17_23_0_0 + flow_18_17_0_0
   + flow_19_17_0_0 + flow_20_17_0_0 + flow_23_17_0_0 = 1
 one_parent_18: edge_15_18_0_0 + edge_19_18_0_0 + edge_20_18_0_0
   + edge_23_18_0_0 = 1
 consume_one_flow_unit_18: flow_15_18_0_0 - flow_18_17_0_0 - flow_18_20_0_0
   + flow_19_18_0_0 + flow_20_18_0_0 + flow_23_18_0_0 = 1
 one_parent_19: edge_0_19_0_0 + edge_3_19_0_0 + edge_5_19_0_0
   + edge_9_19_0_0 + edge_11_19_0_0 + edge_14_19_0_0 + edge_15_19_0_0
   + edge_17_19_0_0 + edge_20_19_0_0 + edge_23_19_0_0 = 1
 consume_one_flow_unit_19: flow_0_19_0_0 + flow_3_19_0_0 + flow_5_19_0_0
   + flow_9_19_0_0 + flow_11_19_0_0 + flow_14_19_0_0 + flow_15_19_0_0
   + flow_17_19_0_0 - flow_19_2_0_0 - flow_19_3_0_0 - flow_19_5_0_0
   - flow_19_8_0_0 - flow_19_9_0_0 - flow_19_11_0_0 - flow_19_12_0_0
   - flow_19_13_0_0 - flow_19_14_0_0 - flow_19_15_0_0 - flow_19_17_0_0
   - flow_19_18_0_0 - flow_19_20_0_0 - flow_19_21_0_0 - flow_19_23_0_0
   - flow_19_24_0_0 + flow_20_19_0_0 + flow_23_19_0_0 = 1
 one_parent_20: edge_3_20_0_0 + edge_5_20_0_0 + edge_9_20_0_0
   + edge_11_20_0_0 + edge_15_20_0_0 + edge_17_20_0_0 + edge_18_20_0_0
   + edge_19_20_0_0 + edge_21_20_0_0 + edge_23_20_0_0 = 1
 consume_one_flow_unit_20: flow_3_20_0_0 + flow_5_20_0_0 + flow_9_20_0_0
   + flow_11_20_0_0 + flow_15_20_0_0 + flow_17_20_0_0 + flow_18_20_0_0
   + flow_19_20_0_0 - flow_20_17_0_0 - flow_20_18_0_0 - flow_20_19_0_0
   - flow_20_21_0_0 - flow_20_23_0_0 - flow_20_24_0_0 + flow_21_20_0_0
   + flow_23_20_0_0 = 1
 one_parent_21: edge_3_21_0_0 + edge_5_21_0_0 + edge_9_21_0_0
   + edge_11_21_0_0 + edge_15_21_0_0 + edge_17_21_0_0 + edge_19_21_0_0
   + edge_20_21_0_0 + edge_22_21_0_0 + edge_23_21_0_0 = 1
 consume_one_flow_unit_21: flow_3_21_0_0 + flow_5_21_0_0 + flow_9_21_0_0
   + flow_11_21_0_0 + flow_15_21_0_0 + flow_17_21_0_0 + flow_19_21_0_0
   + flow_20_21_0_0 - flow_21_20_0_0 - flow_21_23_0_0 - flow_21_24_0_0
   + flow_22_21_0_0 + flow_23_21_0_0 = 1
 one_parent_22: edge_23_22_0_0 = 1
 consume_one_flow_unit_22: - flow_22_21_0_0 + flow_23_22_0_0 = 1
 one_parent_23: edge_0_23_0_0 + edge_3_23_0_0 + edge_5_23_0_0
   + edge_9_23_0_0 + edge_11_23_0_0 + edge_15_23_0_0 + edge_17_23_0_0
   + edge_19_23_0_0 + edge_20_23_0_0 + edge_21_23_0_0 = 1
 consume_one_flow_unit_23: flow_0_23_0_0 + flow_3_23_0_0 + flow_5_23_0_0
   + flow_9_23_0_0 + flow_11_23_0_0 + flow_15_23_0_0 + flow_17_23_0_0
   + flow_19_23_0_0 + flow_20_23_0_0 + flow_21_23_0_0 - flow_23_1_0_0
   - flow_23_2_0_0 - flow_23_3_0_0 - flow_23_5_0_0 - flow_23_6_0_0
   - flow_23_9_0_0 - flow_23_11_0_0 - flow_23_12_0_0 - flow_23_14_0_0
   - flow_23_15_0_0 - flow_23_17_0_0 - flow_23_18_0_0 - flow_23_19_0_0
   - flow_23_20_0_0 - flow_23_21_0_0 - flow_23_22_0_0 - flow_23_24_0_0 = 1
 one_parent_24: edge_3_24_0_0 + edge_5_24_0_0 + edge_9_24_0_0
   + edge_11_24_0_0 + edge_14_24_0_0 + edge_15_24_0_0 + edge_19_24_0_0
   + edge_20_24_0_0 + edge_21_24_0_0 + edge_23_24_0_0 = 1
 consume_one_flow_unit_24: flow_3_24_0_0 + flow_5_24_0_0 + flow_9_24_0_0
   + flow_11_24_0_0 + flow_14_24_0_0 + flow_15_24_0_0 + flow_19_24_0_0
   + flow_20_24_0_0 + flow_21_24_0_0 + flow_23_24_0_0 = 1
 root_flow: flow_0_1_0_0 + flow_0_2_0_0 + flow_0_3_0_0 + flow_0_5_0_0
   + flow_0_9_0_0 + flow_0_11_0_0 + flow_0_14_0_0 + flow_0_15_0_0
   + flow_0_19_0_0 + flow_0_23_0_0 = 24
 inactive_no_flow_0_1_0_0: flow_0_1_0_0 - 1000 edge_0_1_0_0 <= 0
 inactive_no_flow_0_2_0_0: flow_0_2_0_0 - 1000 edge_0_2_0_0 <= 0
 inactive_no_flow_0_3_0_0: flow_0_3_0_0 - 1000 edge_0_3_0_0 <= 0
 inactive_no_flow_0_5_0_0: flow_0_5_0_0 - 1000 edge_0_5_0_0 <= 0
 inactive_no_flow_0_9_0_0: flow_0_9_0_0 - 1000 edge_0_9_0_0 <= 0
 inactive_no_flow_0_11_0_0: flow_0_11_0_0 - 1000 edge_0_11_0_0 <= 0
 inactive_no_flow_0_14_0_0: flow_0_14_0_0 - 1000 edge_0_14_0_0 <= 0
 inactive_no_flow_0_15_0_0: flow_0_15_0_0 - 1000 edge_0_15_0_0 <= 0
 inactive_no_flow_0_19_0_0: flow_0_19_0_0 - 1000 edge_0_19_0_0 <= 0
 inactive_no_flow_0_23_0_0: flow_0_23_0_0 - 1000 edge_0_23_0_0 <= 0
 inactive_no_flow_1_2_0_0: flow_1_2_0_0 - 1000 edge_1_2_0_0 <= 0
 inactive_no_flow_1_3_0_0: flow_1_3_0_0 - 1000 edge_1_3_0_0 <= 0
 inactive_no_flow_1_5_0_0: flow_1_5_0_0 - 1000 edge_1_5_0_0 <= 0
 inactive_no_flow_1_6_0_0: flow_1_6_0_0 - 1000 edge_1_6_0_0 <= 0
 inactive_no_flow_1_9_0_0: flow_1_9_0_0 - 1000 edge_1_9_0_0 <= 0
 inactive_no_flow_1_13_0_0: flow_1_13_0_0 - 1000 edge_1_13_0_0 <= 0
 inactive_no_flow_2_1_0_0: flow_2_1_0_0 - 1000 edge_2_1_0_0 <= 0
 inactive_no_flow_2_3_0_0: flow_2_3_0_0 - 1000 edge_2_3_0_0 <= 0
 inactive_no_flow_2_5_0_0: flow_2_5_0_0 - 1000 edge_2_5_0_0 <= 0
 inactive_no_flow_2_6_0_0: flow_2_6_0_0 - 1000 edge_2_6_0_0 <= 0
 inactive_no_flow_2_9_0_0: flow_2_9_0_0 - 1000 edge_2_9_0_0 <= 0
 inactive_no_flow_2_11_0_0: flow_2_11_0_0 - 1000 edge_2_11_0_0 <= 0
 inactive_no_flow_2_12_0_0: flow_2_12_0_0 - 1000 edge_2_12_0_0 <= 0
 inactive_no_flow_2_13_0_0: flow_2_13_0_0 - 1000 edge_2_13_0_0 <= 0
 inactive_no_flow_3_1_0_0: flow_3_1_0_0 - 1000 edge_3_1_0_0 <= 0
 inactive_no_flow_3_2_0_0: flow_3_2_0_0 - 1000 edge_3_2_0_0 <= 0
 inactive_no_flow_3_4_0_0: flow_3_4_0_0 - 1000 edge_3_4_0_0 <= 0
 inactive_no_flow_3_5_0_0: flow_3_5_0_0 - 1000 edge_3_5_0_0 <= 0
 inactive_no_flow_3_6_0_0: flow_3_6_0_0 - 1000 edge_3_6_0_0 <= 0
 inactive_no_flow_3_8_0_0: flow_3_8_0_0 - 1000 edge_3_8_0_0 <= 0
 inactive_no_flow_3_9_0_0: flow_3_9_0_0 - 1000 edge_3_9_0_0 <= 0
 inactive_no_flow_3_11_0_0: flow_3_11_0_0 - 1000 edge_3_11_0_0 <= 0
 inactive_no_flow_3_12_0_0: flow_3_12_0_0 - 1000 edge_3_12_0_0 <= 0
 inactive_no_flow_3_13_0_0: flow_3_13_0_0 - 1000 edge_3_13_0_0 <= 0
 inactive_no_flow_3_14_0_0: flow_3_14_0_0 - 1000 edge_3_14_0_0 <= 0
 inactive_no_flow_3_15_0_0: flow_3_15_0_0 - 1000 edge_3_15_0_0 <= 0
 inactive_no_flow_3_17_0_0: flow_3_17_0_0 - 1000 edge_3_17_0_0 <= 0
 inactive_no_flow_3_19_0_0: flow_3_19_0_0 - 1000 edge_3_19_0_0 <= 0
 inactive_no_flow_3_20_0_0: flow_3_20_0_0 - 1000 edge_3_20_0_0 <= 0
 inactive_no_flow_3_21_0_0: flow_3_21_0_0 - 1000 edge_3_21_0_0 <= 0
 inactive_no_flow_3_23_0_0: flow_3_23_0_0 - 1000 edge_3_23_0_0 <= 0
 inactive_no_flow_3_24_0_0: flow_3_24_0_0 - 1000 edge_3_24_0_0 <= 0
 inactive_no_flow_4_1_0_0: flow_4_1_0_0 - 1000 edge_4_1_0_0 <= 0
 inactive_no_flow_4_2_0_0: flow_4_2_0_0 - 1000 edge_4_2_0_0 <= 0
 inactive_no_flow_4_3_0_0: flow_4_3_0_0 - 1000 edge_4_3_0_0 <= 0
 inactive_no_flow_4_6_0_0: flow_4_6_0_0 - 1000 edge_4_6_0_0 <= 0
 inactive_no_flow_5_1_0_0: flow_5_1_0_0 - 1000 edge_5_1_0_0 <= 0
 inactive_no_flow_5_2_0_0: flow_5_2_0_0 - 1000 edge_5_2_0_0 <= 0
 inactive_no_flow_5_3_0_0: flow_5_3_0_0 - 1000 edge_5_3_0_0 <= 0
 inactive_no_flow_5_4_0_0: flow_5_4_0_0 - 1000 edge_5_4_0_0 <= 0
 inactive_no_flow_5_6_0_0: flow_5_6_0_0 - 1000 edge_5_6_0_0 <= 0
 inactive_no_flow_5_8_0_0: flow_5_8_0_0 - 1000 edge_5_8_0_0 <= 0
 inactive_no_flow_5_9_0_0: flow_5_9_0_0 - 1000 edge_5_9_0_0 <= 0
 inactive_no_flow_5_11_0_0: flow_5_11_0_0 - 1000 edge_5_11_0_0 <= 0
 inactive_no_flow_5_12_0_0: flow_5_12_0_0 - 1000 edge_5_12_0_0 <= 0
 inactive_no_flow_5_13_0_0: flow_5_13_0_0 - 1000 edge_5_13_0_0 <= 0
 inactive_no_flow_5_14_0_0: flow_5_14_0_0 - 1000 edge_5_14_0_0 <= 0
 inactive_no_flow_5_15_0_0: flow_5_15_0_0 - 1000 edge_5_15_0_0 <= 0
 inactive_no_flow_5_17_0_0: flow_5_17_0_0 - 1000 edge_5_17_0_0 <= 0
 inactive_no_flow_5_19_0_0: flow_5_19_0_0 - 1000 edge_5_19_0_0 <= 0
 inactive_no_flow_5_20_0_0: flow_5_20_0_0 - 1000 edge_5_20_0_0 <= 0
 inactive_no_flow_5_21_0_0: flow_5_21_0_0 - 1000 edge_5_21_0_0 <= 0
 inactive_no_flow_5_23_0_0: flow_5_23_0_0 - 1000 edge_5_23_0_0 <= 0
 inactive_no_flow_5_24_0_0: flow_5_24_0_0 - 1000 edge_5_24_0_0 <= 0
 inactive_no_flow_6_1_0_0: flow_6_1_0_0 - 1000 edge_6_1_0_0 <= 0
 inactive_no_flow_6_5_0_0: flow_6_5_0_0 - 1000 edge_6_5_0_0 <= 0
 inactive_no_flow_6_8_0_0: flow_6_8_0_0 - 1000 edge_6_8_0_0 <= 0
 inactive_no_flow_6_9_0_0: flow_6_9_0_0 - 1000 edge_6_9_0_0 <= 0
 inactive_no_flow_6_11_0_0: flow_6_11_0_0 - 1000 edge_6_11_0_0 <= 0
 inactive_no_flow_8_6_0_0: flow_8_6_0_0 - 1000 edge_8_6_0_0 <= 0
 inactive_no_flow_9_1_0_0: flow_9_1_0_0 - 1000 edge_9_1_0_0 <= 0
 inactive_no_flow_9_2_0_0: flow_9_2_0_0 - 1000 edge_9_2_0_0 <= 0
 inactive_no_flow_9_3_0_0: flow_9_3_0_0 - 1000 edge_9_3_0_0 <= 0
 inactive_no_flow_9_5_0_0: flow_9_5_0_0 - 1000 edge_9_5_0_0 <= 0
 inactive_no_flow_9_6_0_0: flow_9_6_0_0 - 1000 edge_9_6_0_0 <= 0
 inactive_no_flow_9_8_0_0: flow_9_8_0_0 - 1000 edge_9_8_0_0 <= 0
 inactive_no_flow_9_11_0_0: flow_9_11_0_0 - 1000 edge_9_11_0_0 <= 0
 inactive_no_flow_9_12_0_0: flow_9_12_0_0 - 1000 edge_9_12_0_0 <= 0
 inactive_no_flow_9_13_0_0: flow_9_13_0_0 - 1000 edge_9_13_0_0 <= 0
 inactive_no_flow_9_14_0_0: flow_9_14_0_0 - 1000 edge_9_14_0_0 <= 0
 inactive_no_flow_9_15_0_0: flow_9_15_0_0 - 1000 edge_9_15_0_0 <= 0
 inactive_no_flow_9_17_0_0: flow_9_17_0_0 - 1000 edge_9_17_0_0 <= 0
 inactive_no_flow_9_19_0_0: flow_9_19_0_0 - 1000 edge_9_19_0_0 <= 0
 inactive_no_flow_9_20_0_0: flow_9_20_0_0 - 1000 edge_9_20_0_0 <= 0
 inactive_no_flow_9_21_0_0: flow_9_21_0_0 - 1000 edge_9_21_0_0 <= 0
 inactive_no_flow_9_23_0_0: flow_9_23_0_0 - 1000 edge_9_23_0_0 <= 0
 inactive_no_flow_9_24_0_0: flow_9_24_0_0 - 1000 edge_9_24_0_0 <= 0
 inactive_no_flow_11_1_0_0: flow_11_1_0_0 - 1000 edge_11_1_0_0 <= 0
 inactive_no_flow_11_2_0_0: flow_11_2_0_0 - 1000 edge_11_2_0_0 <= 0
 inactive_no_flow_11_3_0_0: flow_11_3_0_0 - 1000 edge_11_3_0_0 <= 0
 inactive_no_flow_11_4_0_0: flow_11_4_0_0 - 1000 edge_11_4_0_0 <= 0
 inactive_no_flow_11_5_0_0: flow_11_5_0_0 - 1000 edge_11_5_0_0 <= 0
 inactive_no_flow_11_6_0_0: flow_11_6_0_0 - 1000 edge_11_6_0_0 <= 0
 inactive_no_flow_11_8_0_0: flow_11_8_0_0 - 1000 edge_11_8_0_0 <= 0
 inactive_no_flow_11_9_0_0: flow_11_9_0_0 - 1000 edge_11_9_0_0 <= 0
 inactive_no_flow_11_12_0_0: flow_11_12_0_0 - 1000 edge_11_12_0_0 <= 0
 inactive_no_flow_11_13_0_0: flow_11_13_0_0 - 1000 edge_11_13_0_0 <= 0
 inactive_no_flow_11_14_0_0: flow_11_14_0_0 - 1000 edge_11_14_0_0 <= 0
 inactive_no_flow_11_15_0_0: flow_11_15_0_0 - 1000 edge_11_15_0_0 <= 0
 inactive_no_flow_11_17_0_0: flow_11_17_0_0 - 1000 edge_11_17_0_0 <= 0
 inactive_no_flow_11_19_0_0: flow_11_19_0_0 - 1000 edge_11_19_0_0 <= 0
 inactive_no_flow_11_20_0_0: flow_11_20_0_0 - 1000 edge_11_20_0_0 <= 0
 inactive_no_flow_11_21_0_0: flow_11_21_0_0 - 1000 edge_11_21_0_0 <= 0
 inactive_no_flow_11_23_0_0: flow_11_23_0_0 - 1000 edge_11_23_0_0 <= 0
 inactive_no_flow_11_24_0_0: flow_11_24_0_0 - 1000 edge_11_24_0_0 <= 0
 inactive_no_flow_12_11_0_0: flow_12_11_0_0 - 1000 edge_12_11_0_0 <= 0
 inactive_no_flow_12_13_0_0: flow_12_13_0_0 - 1000 edge_12_13_0_0 <= 0
 inactive_no_flow_12_14_0_0: flow_12_14_0_0 - 1000 edge_12_14_0_0 <= 0
 inactive_no_flow_12_15_0_0: flow_12_15_0_0 - 1000 edge_12_15_0_0 <= 0
 inactive_no_flow_13_12_0_0: flow_13_12_0_0 - 1000 edge_13_12_0_0 <= 0
 inactive_no_flow_13_14_0_0: flow_13_14_0_0 - 1000 edge_13_14_0_0 <= 0
 inactive_no_flow_13_15_0_0: flow_13_15_0_0 - 1000 edge_13_15_0_0 <= 0
 inactive_no_flow_14_8_0_0: flow_14_8_0_0 - 1000 edge_14_8_0_0 <= 0
 inactive_no_flow_14_12_0_0: flow_14_12_0_0 - 1000 edge_14_12_0_0 <= 0
 inactive_no_flow_14_13_0_0: flow_14_13_0_0 - 1000 edge_14_13_0_0 <= 0
 inactive_no_flow_14_15_0_0: flow_14_15_0_0 - 1000 edge_14_15_0_0 <= 0
 inactive_no_flow_14_17_0_0: flow_14_17_0_0 - 1000 edge_14_17_0_0 <= 0
 inactive_no_flow_14_19_0_0: flow_14_19_0_0 - 1000 edge_14_19_0_0 <= 0
 inactive_no_flow_14_24_0_0: flow_14_24_0_0 - 1000 edge_14_24_0_0 <= 0
 inactive_no_flow_15_1_0_0: flow_15_1_0_0 - 1000 edge_15_1_0_0 <= 0
 inactive_no_flow_15_2_0_0: flow_15_2_0_0 - 1000 edge_15_2_0_0 <= 0
 inactive_no_flow_15_3_0_0: flow_15_3_0_0 - 1000 edge_15_3_0_0 <= 0
 inactive_no_flow_15_5_0_0: flow_15_5_0_0 - 1000 edge_15_5_0_0 <= 0
 inactive_no_flow_15_6_0_0: flow_15_6_0_0 - 1000 edge_15_6_0_0 <= 0
 inactive_no_flow_15_8_0_0: flow_15_8_0_0 - 1000 edge_15_8_0_0 <= 0
 inactive_no_flow_15_9_0_0: flow_15_9_0_0 - 1000 edge_15_9_0_0 <= 0
 inactive_no_flow_15_11_0_0: flow_15_11_0_0 - 1000 edge_15_11_0_0 <= 0
 inactive_no_flow_15_12_0_0: flow_15_12_0_0 - 1000 edge_15_12_0_0 <= 0
 inactive_no_flow_15_13_0_0: flow_15_13_0_0 - 1000 edge_15_13_0_0 <= 0
 inactive_no_flow_15_14_0_0: flow_15_14_0_0 - 1000 edge_15_14_0_0 <= 0
 inactive_no_flow_15_17_0_0: flow_15_17_0_0 - 1000 edge_15_17_0_0 <= 0
 inactive_no_flow_15_18_0_0: flow_15_18_0_0 - 1000 edge_15_18_0_0 <= 0
 inactive_no_flow_15_19_0_0: flow_15_19_0_0 - 1000 edge_15_19_0_0 <= 0
 inactive_no_flow_15_20_0_0: flow_15_20_0_0 - 1000 edge_15_20_0_0 <= 0
 inactive_no_flow_15_21_0_0: flow_15_21_0_0 - 1000 edge_15_21_0_0 <= 0
 inactive_no_flow_15_23_0_0: flow_15_23_0_0 - 1000 edge_15_23_0_0 <= 0
 inactive_no_flow_15_24_0_0: flow_15_24_0_0 - 1000 edge_15_24_0_0 <= 0
 inactive_no_flow_17_19_0_0: flow_17_19_0_0 - 1000 edge_17_19_0_0 <= 0
 inactive_no_flow_17_20_0_0: flow_17_20_0_0 - 1000 edge_17_20_0_0 <= 0
 inactive_no_flow_17_21_0_0: flow_17_21_0_0 - 1000 edge_17_21_0_0 <= 0
 inactive_no_flow_17_23_0_0: flow_17_23_0_0 - 1000 edge_17_23_0_0 <= 0
 inactive_no_flow_18_17_0_0: flow_18_17_0_0 - 1000 edge_18_17_0_0 <= 0
 inactive_no_flow_18_20_0_0: flow_18_20_0_0 - 1000 edge_18_20_0_0 <= 0
 inactive_no_flow_19_2_0_0: flow_19_2_0_0 - 1000 edge_19_2_0_0 <= 0
 inactive_no_flow_19_3_0_0: flow_19_3_0_0 - 1000 edge_19_3_0_0 <= 0
 inactive_no_flow_19_5_0_0: flow_19_5_0_0 - 1000 edge_19_5_0_0 <= 0
 inactive_no_flow_19_8_0_0: flow_19_8_0_0 - 1000 edge_19_8_0_0 <= 0
 inactive_no_flow_19_9_0_0: flow_19_9_0_0 - 1000 edge_19_9_0_0 <= 0
 inactive_no_flow_19_11_0_0: flow_19_11_0_0 - 1000 edge_19_11_0_0 <= 0
 inactive_no_flow_19_12_0_0: flow_19_12_0_0 - 1000 edge_19_12_0_0 <= 0
 inactive_no_flow_19_13_0_0: flow_19_13_0_0 - 1000 edge_19_13_0_0 <= 0
 inactive_no_flow_19_14_0_0: flow_19_14_0_0 - 1000 edge_19_14_0_0 <= 0
 inactive_no_flow_19_15_0_0: flow_19_15_0_0 - 1000 edge_19_15_0_0 <= 0
 inactive_no_flow_19_17_0_0: flow_19_17_0_0 - 1000 edge_19_17_0_0 <= 0
 inactive_no_flow_19_18_0_0: flow_19_18_0_0 - 1000 edge_19_18_0_0 <= 0
 inactive_no_flow_19_20_0_0: flow_19_20_0_0 - 1000 edge_19_20_0_0 <= 0
 inactive_no_flow_19_21_0_0: flow_19_21_0_0 - 1000 edge_19_21_0_0 <= 0
 inactive_no_flow_19_23_0_0: flow_19_23_0_0 - 1000 edge_19_23_0_0 <= 0
 inactive_no_flow_19_24_0_0: flow_19_24_0_0 - 1000 edge_19_24_0_0 <= 0
 inactive_no_flow_20_17_0_0: flow_20_17_0_0 - 1000 edge_20_17_0_0 <= 0
 inactive_no_flow_20_18_0_0: flow_20_18_0_0 - 1000 edge_20_18_0_0 <= 0
 inactive_no_flow_20_19_0_0: flow_20_19_0_0 - 1000 edge_20_19_0_0 <= 0
 inactive_no_flow_20_21_0_0: flow_20_21_0_0 - 1000 edge_20_21_0_0 <= 0
 inactive_no_flow_20_23_0_0: flow_20_23_0_0 - 1000 edge_20_23_0_0 <= 0
 inactive_no_flow_20_24_0_0: flow_20_24_0_0 - 1000 edge_20_24_0_0 <= 0
 inactive_no_flow_21_20_0_0: flow_21_20_0_0 - 1000 edge_21_20_0_0 <= 0
 inactive_no_flow_21_23_0_0: flow_21_23_0_0 - 1000 edge_21_23_0_0 <= 0
 inactive_no_flow_21_24_0_0: flow_21_24_0_0 - 1000 edge_21_24_0_0 <= 0
 inactive_no_flow_22_21_0_0: flow_22_21_0_0 - 1000 edge_22_21_0_0 <= 0
 inactive_no_flow_23_1_0_0: flow_23_1_0_0 - 1000 edge_23_1_0_0 <= 0
 inactive_no_flow_23_2_0_0: flow_23_2_0_0 - 1000 edge_23_2_0_0 <= 0
 inactive_no_flow_23_3_0_0: flow_23_3_0_0 - 1000 edge_23_3_0_0 <= 0
 inactive_no_flow_23_5_0_0: flow_23_5_0_0 - 1000 edge_23_5_0_0 <= 0
 inactive_no_flow_23_6_0_0: flow_23_6_0_0 - 1000 edge_23_6_0_0 <= 0
 inactive_no_flow_23_9_0_0: flow_23_9_0_0 - 1000 edge_23_9_0_0 <= 0
 inactive_no_flow_23_11_0_0: flow_23_11_0_0 - 1000 edge_23_11_0_0 <= 0
 inactive_no_flow_23_12_0_0: flow_23_12_0_0 - 1000 edge_23_12_0_0 <= 0
 inactive_no_flow_23_14_0_0: flow_23_14_0_0 - 1000 edge_23_14_0_0 <= 0
 inactive_no_flow_23_15_0_0: flow_23_15_0_0 - 1000 edge_23_15_0_0 <= 0
 inactive_no_flow_23_17_0_0: flow_23_17_0_0 - 1000 edge_23_17_0_0 <= 0
 inactive_no_flow_23_18_0_0: flow_23_18_0_0 - 1000 edge_23_18_0_0 <= 0
 inactive_no_flow_23_19_0_0: flow_23_19_0_0 - 1000 edge_23_19_0_0 <= 0
 inactive_no_flow_23_20_0_0: flow_23_20_0_0 - 1000 edge_23_20_0_0 <= 0
 inactive_no_flow_23_21_0_0: flow_23_21_0_0 - 1000 edge_23_21_0_0 <= 0
 inactive_no_flow_23_22_0_0: flow_23_22_0_0 - 1000 edge_23_22_0_0 <= 0
 inactive_no_flow_23_24_0_0: flow_23_24_0_0 - 1000 edge_23_24_0_0 <= 0
Bounds
Binaries
 edge_0_1_0_0 edge_0_2_0_0 edge_0_3_0_0 edge_0_5_0_0 edge_0_9_0_0
 edge_0_11_0_0 edge_0_14_0_0 edge_0_15_0_0 edge_0_19_0_0 edge_0_23_0_0
 edge_1_2_0_0 edge_1_3_0_0 edge_1_5_0_0 edge_1_6_0_0 edge_1_9_0_0
 edge_1_13_0_0 edge_2_1_0_0 edge_2_3_0_0 edge_2_5_0_0 edge_2_6_0_0
 edge_2_9_0_0 edge_2_11_0_0 edge_2_12_0_0 edge_2_13_0_0 edge_3_1_0_0
 edge_3_2_0_0 edge_3_4_0_0 edge_3_5_0_0 edge_3_6_0_0 edge_3_8_0_0
 edge_3_9_0_0 edge_3_11_0_0 edge_3_12_0_0 edge_3_13_0_0 edge_3_14_0_0
 edge_3_15_0_0 edge_3_17_0_0 edge_3_19_0_0 edge_3_20_0_0 edge_3_21_0_0
 edge_3_23_0_0 edge_3_24_0_0 edge_4_1_0_0 edge_4_2_0_0 edge_4_3_0_0
 edge_4_6_0_0 edge_5_1_0_0 edge_5_2_0_0 edge_5_3_0_0 edge_5_4_0_0
 edge_5_6_0_0 edge_5_8_0_0 edge_5_9_0_0 edge_5_11_0_0 edge_5_12_0_0
 edge_5_13_0_0 edge_5_14_0_0 edge_5_15_0_0 edge_5_17_0_0 edge_5_19_0_0
 edge_5_20_0_0 edge_5_21_0_0 edge_5_23_0_0 edge_5_24_0_0 edge_6_1_0_0
 edge_6_5_0_0 edge_6_8_0_0 edge_6_9_0_0 edge_6_11_0_0 edge_8_6_0_0
 edge_9_1_0_0 edge_9_2_0_0 edge_9_3_0_0 edge_9_5_0_0 edge_9_6_0_0
 edge_9_8_0_0 edge_9_11_0_0 edge_9_12_0_0 edge_9_13_0_0 edge_9_14_0_0
 edge_9_15_0_0 edge_9_17_0_0 edge_9_19_0_0 edge_9_20_0_0 edge_9_21_0_0
 edge_9_23_0_0 edge_9_24_0_0 edge_11_1_0_0 edge_11_2_0_0 edge_11_3_0_0
 edge_11_4_0_0 edge_11_5_0_0 edge_11_6_0_0 edge_11_8_0_0 edge_11_9_0_0
 edge_11_12_0_0 edge_11_13_0_0 edge_11_14_0_0 edge_11_15_0_0 edge_11_17_0_0
 edge_11_19_0_0 edge_11_20_0_0 edge_11_21_0_0 edge_11_23_0_0 edge_11_24_0_0
 edge_12_11_0_0 edge_12_13_0_0 edge_12_14_0_0 edge_12_15_0_0 edge_13_12_0_0
 edge_13_14_0_0 edge_13_15_0_0 edge_14_8_0_0 edge_14_12_0_0 edge_14_13_0_0
 edge_14_15_0_0 edge_14_17_0_0 edge_14_19_0_0 edge_14_24_0_0 edge_15_1_0_0
 edge_15_2_0_0 edge_15_3_0_0 edge_15_5_0_0 edge_15_6_0_0 edge_15_8_0_0
 edge_15_9_0_0 edge_15_11_0_0 edge_15_12_0_0 edge_15_13_0_0 edge_15_14_0_0
 edge_15_17_0_0 edge_15_18_0_0 edge_15_19_0_0 edge_15_20_0_0 edge_15_21_0_0
 edge_15_23_0_0 edge_15_24_0_0 edge_17_19_0_0 edge_17_20_0_0 edge_17_21_0_0
 edge_17_23_0_0 edge_18_17_0_0 edge_18_20_0_0 edge_19_2_0_0 edge_19_3_0_0
 edge_19_5_0_0 edge_19_8_0_0 edge_19_9_0_0 edge_19_11_0_0 edge_19_12_0_0
 edge_19_13_0_0 edge_19_14_0_0 edge_19_15_0_0 edge_19_17_0_0 edge_19_18_0_0
 edge_19_20_0_0 edge_19_21_0_0 edge_19_23_0_0 edge_19_24_0_0 edge_20_17_0_0
 edge_20_18_0_0 edge_20_19_0_0 edge_20_21_0_0 edge_20_23_0_0 edge_20_24_0_0
 edge_21_20_0_0 edge_21_23_0_0 edge_21_24_0_0 edge_22_21_0_0 edge_23_1_0_0
 edge_23_2_0_0 edge_23_3_0_0 edge_23_5_0_0 edge_23_6_0_0 edge_23_9_0_0
 edge_23_11_0_0 edge_23_12_0_0 edge_23_14_0_0 edge_23_15_0_0 edge_23_17_0_0
 edge_23_18_0_0 edge_23_19_0_0 edge_23_20_0_0 edge_23_21_0_0 edge_23_22_0_0
 edge_23_24_0_0
End
